
List of user-set options:

                                    Name   Value                used
                           compl_inf_tol = 1                     yes
                         constr_viol_tol = 1                     yes
                            dual_inf_tol = 1000                  yes
                           linear_solver = ma97                  yes
                              ma86_small = 1e-30                  no
                                  ma86_u = 0.0001                 no
                              ma97_order = best                  yes
                              ma97_small = 1e-30                 yes
                            ma97_switch1 = at_start              yes
                            ma97_switch2 = od_hd_reuse           yes
                                  ma97_u = 1e-06                 yes
                               ma97_umax = 0.5                   yes
                                max_iter = 1000                  yes
                    max_refinement_steps = 20                    yes
                    min_refinement_steps = 5                     yes
                                 mu_init = 1e-06                 yes
           mu_superlinear_decrease_power = 1.25                  yes
                   nlp_scaling_min_value = 1e-08                 yes
                        option_file_name = Preset_Case:_721_NCP.opt  yes
                             output_file = ./tmp/Preset_Case:_721_NCP.output  yes
                      print_user_options = yes                   yes
        required_infeasibility_reduction = 1                      no
                                     tol = 1e-08                 yes
                   warm_start_bound_frac = 1e-20                 yes
                   warm_start_bound_push = 1e-20                 yes
                   warm_start_init_point = yes                   yes
              warm_start_mult_bound_push = 1e-20                 yes
                warm_start_mult_init_max = 1e+40                 yes
             warm_start_slack_bound_frac = 1e-20                 yes
             warm_start_slack_bound_push = 1e-20                 yes

******************************************************************************
This program contains Ipopt, a library for large-scale nonlinear optimization.
 Ipopt is released as open source code under the Eclipse Public License (EPL).
         For more information visit http://projects.coin-or.org/Ipopt
******************************************************************************

This is Ipopt version 3.12.10, running with linear solver ma97.

Number of nonzeros in equality constraint Jacobian...:   117167
Number of nonzeros in inequality constraint Jacobian.:      213
Number of nonzeros in Lagrangian Hessian.............:    47513

Total number of variables............................:    29977
                     variables with only lower bounds:    11312
                variables with lower and upper bounds:    15135
                     variables with only upper bounds:        0
Total number of equality constraints.................:    29864
Total number of inequality constraints...............:       25
        inequality constraints with only lower bounds:        4
   inequality constraints with lower and upper bounds:        0
        inequality constraints with only upper bounds:       21

iter    objective    inf_pr   inf_du lg(mu)  ||d||  lg(rg) alpha_du alpha_pr  ls
   0 -1.3959813e-01 1.66e-01 2.00e+00  -6.0 0.00e+00    -  0.00e+00 0.00e+00   0
In iteration 0, 8 Slacks too small, adjusting variable bounds
   1 -1.3959813e-01 1.66e-01 1.15e+03  -6.0 1.08e+10    -  1.15e-13 6.82e-19h  1
   2 -1.3959838e-01 1.66e-01 1.15e+03  -6.0 1.40e+02    -  1.70e-05 1.03e-05f  1
   3 -1.3959873e-01 1.66e-01 1.15e+03  -6.0 1.02e+02    -  5.14e-02 2.18e-05h  1
   4 -1.3960046e-01 1.66e-01 1.15e+03  -6.0 1.24e+02    -  5.13e-02 8.10e-05h  1
   5 -1.3959926e-01 1.66e-01 1.19e+03  -6.0 1.75e+02    -  1.11e-01 9.82e-04f  1
   6 -1.4117530e-01 1.54e-01 1.11e+03  -6.0 1.29e+02    -  1.05e-01 7.07e-02h  1
   7 -1.4118037e-01 1.54e-01 3.98e+04  -6.0 1.27e+02    -  1.02e-01 2.05e-04h  1
   8 -1.4434090e-01 3.54e-01 3.62e+04  -6.0 6.88e+01    -  2.23e-01 2.08e-01f  1
   9 -1.4434122e-01 3.54e-01 1.23e+05  -6.0 8.67e+01    -  1.89e-01 5.81e-05h  1
iter    objective    inf_pr   inf_du lg(mu)  ||d||  lg(rg) alpha_du alpha_pr  ls
  10 -1.4468084e-01 3.92e-01 1.71e+05  -6.0 5.38e+01    -  3.21e-01 1.19e-01f  2
  11 -1.4569622e-01 6.39e-01 1.93e+05  -6.0 4.35e+01    -  5.10e-01 2.21e-01h  1
  12 -1.4627165e-01 9.18e-01 1.65e+05  -6.0 5.53e+01    -  5.20e-01 1.89e-01h  1
  13 -1.4712633e-01 8.68e-01 1.47e+05  -6.0 8.09e+01    -  1.10e-01 7.24e-02h  1
  14 -1.4722221e-01 8.58e-01 1.01e+05  -6.0 1.36e+02  -4.0 1.32e-01 1.17e-02h  1
  15 -1.5307120e-01 2.03e+00 1.00e+05  -6.0 1.72e+02    -  6.44e-05 3.57e-01f  1
  16 -1.5529642e-01 1.92e+00 9.83e+04  -6.0 3.27e+01  -3.6 8.45e-02 2.27e-01h  1
  17 -1.5528684e-01 1.92e+00 9.34e+04  -6.0 3.10e+01  -3.1 2.01e-02 6.08e-04h  1
  18 -1.5295772e-01 1.49e+00 2.97e+05  -6.0 3.18e+01  -3.6 1.36e-02 4.19e-01H  1
  19 -1.5291281e-01 1.49e+00 2.75e+05  -6.0 6.05e+01  -3.2 4.31e-02 3.93e-03h  1
iter    objective    inf_pr   inf_du lg(mu)  ||d||  lg(rg) alpha_du alpha_pr  ls
  20 -1.5288739e-01 1.48e+00 2.58e+05  -6.0 3.76e+01  -2.8 2.26e-02 4.11e-03h  1
  21 -1.5251179e-01 1.42e+00 2.65e+05  -6.0 5.76e+01  -3.3 2.94e-03 3.89e-02h  1
  22 -1.5235893e-01 1.38e+00 2.64e+05  -6.0 3.93e+01  -2.8 1.61e-02 2.95e-02h  1
  23 -1.5169983e-01 1.38e+00 3.14e+05  -6.0 8.79e+01    -  1.87e-02 9.51e-02h  1
  24 -1.5156979e-01 1.37e+00 3.24e+05  -6.0 1.18e+02    -  2.67e-06 2.17e-02h  1
  25 -1.5160734e-01 1.36e+00 2.39e+05  -6.0 5.50e+02  -3.3 2.72e-02 1.38e-03f  1
  26 -1.5360985e-01 1.19e+00 2.08e+05  -6.0 2.64e+02    -  1.30e-01 1.29e-01f  2
  27 -1.5514470e-01 9.89e-01 2.11e+05  -6.0 2.07e+02    -  1.33e-01 2.06e-01h  1
  28 -1.5565774e-01 7.18e-01 1.56e+05  -6.0 2.56e+02    -  3.86e-01 2.72e-01h  1
  29 -1.5659857e-01 1.48e+00 8.52e+04  -6.0 1.71e+02    -  3.35e-01 4.85e-01h  1
iter    objective    inf_pr   inf_du lg(mu)  ||d||  lg(rg) alpha_du alpha_pr  ls
  30 -1.5758656e-01 2.36e+00 1.52e+03  -6.0 6.54e+01    -  6.08e-01 1.00e+00h  1
  31 -1.6069405e-01 3.70e-02 2.09e+02  -6.0 4.04e+01    -  6.03e-01 9.62e-01h  1
  32 -1.6861395e-01 3.64e-01 6.03e+02  -6.0 6.41e+01    -  1.22e-02 1.00e+00f  1
  33 -1.7150504e-01 1.93e-01 1.66e+03  -6.0 3.10e+01    -  3.88e-01 1.00e+00h  1
  34 -1.7268722e-01 1.93e-01 5.91e+03  -6.0 6.42e+01    -  1.37e-01 1.00e+00h  1
  35 -1.7341620e-01 9.44e-02 2.88e+03  -6.0 7.24e+01    -  7.25e-01 5.17e-01h  1
  36 -1.7749810e-01 1.91e+00 9.85e+01  -6.0 2.12e+02    -  7.71e-03 1.00e+00f  1
  37 -1.7815735e-01 8.29e-01 5.48e+01  -6.0 1.12e+02    -  3.78e-01 5.62e-01h  1
  38 -1.7809237e-01 2.97e-04 2.83e+03  -6.0 8.36e-01  -3.8 1.62e-04 1.00e+00h  1
  39 -1.7814024e-01 1.10e-04 8.79e+02  -6.0 1.79e-01  -4.3 3.82e-01 6.90e-01h  1
iter    objective    inf_pr   inf_du lg(mu)  ||d||  lg(rg) alpha_du alpha_pr  ls
  40 -1.7882499e-01 6.18e-02 4.47e+02  -6.0 3.00e+00  -4.7 1.42e-03 1.00e+00f  1
  41 -1.7978133e-01 2.50e-01 4.35e+02  -6.0 6.53e+02    -  2.40e-02 2.65e-02h  1
  42 -1.8147341e-01 5.10e-01 2.73e+02  -6.0 2.29e+02    -  3.66e-01 3.72e-01h  1
  43 -1.8172551e-01 2.72e-01 1.40e+02  -6.0 2.00e+00  -5.2 6.99e-01 4.86e-01h  1
  44 -1.8191516e-01 3.38e-02 1.41e+01  -6.0 4.66e+00  -5.7 9.93e-01 8.99e-01h  1
  45 -1.8214493e-01 3.19e-02 2.55e-01  -6.0 1.41e+01  -6.2 1.00e+00 1.00e+00h  1
  46 -1.8279634e-01 1.67e-01 3.18e+00  -6.0 4.19e+01  -6.6 1.00e+00 1.00e+00h  1
  47 -1.8391931e-01 9.79e-01 1.89e+01  -6.0 1.23e+02  -7.1 4.87e-01 5.10e-01h  1
  48 -1.8690949e-01 9.11e-01 1.71e+03  -6.0 3.37e+02  -7.6 8.81e-01 6.50e-01h  1
  49 -1.8777668e-01 8.92e-01 4.58e+03  -6.0 8.06e+02  -8.1 3.94e-01 7.74e-02h  1
iter    objective    inf_pr   inf_du lg(mu)  ||d||  lg(rg) alpha_du alpha_pr  ls
  50 -1.9060920e-01 1.06e+00 2.34e+03  -6.0 3.28e+02  -7.6 1.00e+00 6.07e-01h  1
  51 -1.9103963e-01 8.37e-01 2.84e+03  -6.0 1.18e+02  -7.2 4.61e-01 2.24e-01h  1
  52 -1.9122479e-01 8.06e-01 4.26e+03  -6.0 4.03e+02  -7.7 2.05e-01 3.92e-02h  1
  53 -1.9398158e-01 1.41e+00 1.26e+04  -6.0 7.99e+02  -8.2 1.00e+00 2.36e-01h  1
  54 -1.9587612e-01 1.18e+00 2.48e+03  -6.0 3.17e+02  -7.7 7.76e-01 4.08e-01h  1
  55 -1.9783313e-01 1.84e+00 1.04e+04  -6.0 7.80e+02  -8.2 4.71e-01 1.61e-01h  1
  56 -1.9971275e-01 1.58e+00 2.00e+04  -6.0 3.09e+02  -7.8 1.63e-02 3.71e-01h  1
  57 -2.0161007e-01 2.15e+00 1.28e+04  -6.0 7.64e+02  -8.3 2.54e-01 1.44e-01h  1
  58 -2.0532982e-01 1.84e+00 2.41e+04  -6.0 3.08e+02  -7.9 3.48e-01 7.12e-01h  1
  59 -2.0940270e-01 3.38e+00 1.70e+04  -6.0 8.27e+02  -8.3 4.25e-01 2.96e-01h  1
iter    objective    inf_pr   inf_du lg(mu)  ||d||  lg(rg) alpha_du alpha_pr  ls
  60 -2.1366068e-01 2.43e+00 7.92e+04  -6.0 1.39e+03  -8.8 5.62e-01 2.52e-01h  1
  61 -2.1758533e-01 3.27e+00 1.27e+05  -6.0 1.49e+04  -9.3 8.99e-02 5.20e-02h  1
  62 -2.1883624e-01 2.54e+00 2.42e+04  -6.0 1.08e+02  -7.1 3.65e-04 2.23e-01h  1
  63r-2.1883624e-01 2.54e+00 1.00e+03   0.2 0.00e+00  -4.8 0.00e+00 2.20e-07R  2
  64r-2.1878258e-01 2.54e+00 1.00e+03   0.2 2.61e+04    -  2.35e-07 2.62e-07f  1
  65 -2.3391932e-01 3.48e+01 3.39e+02  -6.0 2.61e+05    -  2.63e-04 1.65e-02h  1
  66 -2.4047476e-01 3.42e+01 3.38e+02  -6.0 2.42e+05    -  1.10e-02 1.38e-02h  1
  67 -2.4041816e-01 3.39e+01 3.36e+02  -6.0 7.94e+01  -5.3 6.06e-02 7.60e-03h  1
  68 -2.4031810e-01 3.27e+01 3.24e+02  -6.0 1.27e+01  -5.8 1.09e-01 3.60e-02h  1
  69 -2.3985242e-01 2.53e+01 2.49e+02  -6.0 1.99e+01  -6.2 1.73e-01 2.31e-01h  1
iter    objective    inf_pr   inf_du lg(mu)  ||d||  lg(rg) alpha_du alpha_pr  ls
  70 -2.3858789e-01 1.07e+01 1.40e+02  -6.0 5.81e+01  -6.7 4.24e-01 6.03e-01h  1
  71 -2.3810851e-01 6.18e+00 6.25e+01  -6.0 2.33e+01  -6.3 9.12e-01 4.31e-01h  1
  72 -2.3845531e-01 2.75e+00 8.26e+01  -6.0 7.29e+01  -6.8 1.00e+00 5.60e-01h  1
  73 -2.3921643e-01 2.63e+00 1.10e+02  -6.0 7.15e+02  -7.3 2.17e-01 4.57e-02h  1
  74 -2.3921862e-01 2.63e+00 1.10e+02  -6.0 2.56e+02  -7.7 1.64e-02 2.35e-04h  1
  75 -2.3990064e-01 5.65e-01 7.93e+02  -6.0 2.08e+02  -8.2 5.59e-04 7.92e-01f  1
  76 -2.4005438e-01 5.60e-01 7.86e+02  -6.0 8.69e+02  -8.7 2.82e-01 8.89e-03h  1
  77 -2.4028628e-01 5.87e-01 7.70e+02  -6.0 3.62e+03  -9.2 4.71e-02 1.98e-02h  1
  78 -2.4263564e-01 8.57e+00 6.90e+02  -6.0 8.02e+03  -9.6 1.24e-01 1.03e-01h  1
  79 -2.4330407e-01 7.81e+00 6.05e+02  -6.0 1.24e+03  -9.2 4.55e-02 1.24e-01h  1
iter    objective    inf_pr   inf_du lg(mu)  ||d||  lg(rg) alpha_du alpha_pr  ls
  80 -2.4414915e-01 5.68e+00 4.13e+02  -6.0 5.44e+02  -8.8 3.82e-01 3.17e-01h  1
  81 -2.4412099e-01 5.65e+00 4.11e+02  -6.0 1.57e+03  -7.5 3.32e-03 5.91e-03h  1
  82 -2.4439009e-01 2.56e+00 5.63e+02  -6.0 9.73e+01  -7.9 6.85e-02 5.59e-01h  1
  83 -2.4441124e-01 2.50e+00 5.47e+02  -6.0 3.99e+02  -8.4 7.95e-04 2.27e-02h  1
  84 -2.4440930e-01 2.50e+00 5.47e+02  -6.0 2.64e+04  -8.9 2.25e-07 2.13e-04h  1
  85 -2.4441352e-01 2.50e+00 5.45e+02  -6.0 1.12e+05  -9.4 1.05e-08 2.68e-05f  1
  86 -2.4441284e-01 2.50e+00 5.45e+02  -6.0 5.74e+04  -8.9 4.90e-08 2.74e-05h  1
  87 -2.4441432e-01 2.50e+00 5.44e+02  -6.0 3.06e+04  -9.4 1.64e-07 3.06e-05f  1
  88 -2.4441416e-01 2.50e+00 5.44e+02  -6.0 1.64e+04  -9.0 6.41e-07 3.04e-05h  1
  89 -2.4441485e-01 2.50e+00 5.44e+02  -6.0 1.02e+04  -9.5 1.86e-06 3.23e-05h  1
iter    objective    inf_pr   inf_du lg(mu)  ||d||  lg(rg) alpha_du alpha_pr  ls
  90 -2.4441489e-01 2.50e+00 5.44e+02  -6.0 4.75e+03  -9.0 8.36e-06 3.66e-05h  1
  91 -2.4441563e-01 2.50e+00 5.44e+02  -6.0 3.91e+03  -9.5 2.93e-05 5.48e-05f  1
  92 -2.4441626e-01 2.50e+00 5.18e+02  -6.0 8.78e+02  -9.1 3.39e-02 1.92e-04f  1
  93 -2.4678074e-01 8.90e+01 3.93e+02  -6.0 1.14e+04  -9.6 3.40e-02 1.85e-01f  1
  94 -2.4978764e-01 4.04e+01 3.84e+02  -6.0 1.05e+03  -9.1 1.32e-01 5.46e-01h  1
  95 -2.5012741e-01 3.07e+01 5.14e+02  -6.0 2.94e+02  -8.7 6.69e-02 2.40e-01h  1
  96 -2.5245537e-01 2.64e+01 1.20e+03  -6.0 5.85e+03  -9.2 2.34e-02 1.41e-01h  1
  97 -2.5189714e-01 2.01e+01 9.06e+02  -6.0 1.29e+03  -8.8 1.53e-01 2.41e-01h  1
  98 -2.5256780e-01 1.58e+01 7.60e+02  -6.0 8.60e+02  -9.2 2.07e-01 2.29e-01h  1
  99 -2.5345551e-01 6.10e+00 8.05e+02  -6.0 2.81e+02  -8.8 4.72e-01 6.50e-01h  1
iter    objective    inf_pr   inf_du lg(mu)  ||d||  lg(rg) alpha_du alpha_pr  ls
 100 -2.5414134e-01 3.08e+00 9.76e+02  -6.0 6.46e+02  -9.3 3.81e-01 5.03e-01h  1
 101 -2.5445214e-01 9.33e-01 2.38e+03  -6.0 2.66e+02  -8.9 2.58e-01 7.28e-01h  1
 102 -2.5464328e-01 8.33e-01 1.55e+03  -6.0 6.96e+02  -9.4 2.64e-01 2.88e-01h  1
 103 -2.5474043e-01 8.34e-01 2.91e+03  -6.0 1.38e+03  -9.8 5.97e-02 1.24e-01h  1
 104 -2.5505131e-01 6.91e+00 3.01e+02  -6.0 7.28e+02  -9.4 2.37e-02 6.08e-01f  1
 105 -2.5501875e-01 5.59e+00 2.24e+02  -6.0 1.82e+01  -7.2 2.39e-01 2.52e-01h  1
 106 -2.5500153e-01 3.90e-01 4.10e+01  -6.0 7.77e+00  -6.7 8.69e-02 1.00e+00h  1
 107 -2.5502940e-01 4.31e-01 1.72e+01  -6.0 5.67e+00  -6.3 6.38e-01 4.61e-01h  1
 108 -2.5504577e-01 5.73e-01 1.02e+01  -6.0 8.91e+00  -6.8 4.67e-01 3.27e-01f  1
 109 -2.5504509e-01 8.49e-02 2.09e-01  -6.0 7.62e+00  -7.3 1.00e+00 1.00e+00h  1
iter    objective    inf_pr   inf_du lg(mu)  ||d||  lg(rg) alpha_du alpha_pr  ls
 110 -2.5504578e-01 6.93e-02 4.19e-02  -6.0 2.15e+01  -7.7 1.00e+00 1.00e+00h  1
 111 -2.5506677e-01 2.38e-02 2.06e-02  -6.0 5.97e+01  -8.2 1.00e+00 1.00e+00h  1
 112 -2.5514040e-01 2.78e-01 5.21e-02  -6.0 1.61e+02  -8.7 1.00e+00 1.00e+00h  1
 113 -2.5531175e-01 1.04e+00 9.91e-01  -6.0 3.15e+02  -9.2 1.00e+00 8.92e-01h  1
 114 -2.5542418e-01 1.00e+00 1.26e+01  -6.0 6.31e+02  -9.7 1.00e+00 3.92e-01h  1
 115 -2.5581684e-01 1.15e+01 3.84e+00  -6.0 2.63e+03 -10.1 4.98e-01 6.44e-01h  1
Error in an AMPL evaluation. Run with "halt_on_ampl_error yes" to see details.
Warning: Cutting back alpha due to evaluation error
 116 -2.5585270e-01 7.09e+00 1.72e+00  -6.0 6.88e+02  -9.7 6.16e-01 4.06e-01h  2
 117 -2.5601541e-01 6.73e+00 3.73e+00  -6.0 1.73e+03 -10.2 3.25e-01 3.88e-01h  1
 118 -2.5634042e-01 1.27e+01 3.80e+02  -6.0 5.90e+03 -10.7 8.91e-02 2.54e-01h  1
 119 -2.5641108e-01 7.59e+00 9.22e+02  -6.0 1.14e+03  -9.3 1.46e-01 4.02e-01h  1
iter    objective    inf_pr   inf_du lg(mu)  ||d||  lg(rg) alpha_du alpha_pr  ls
 120 -2.5661199e-01 9.75e+00 8.67e+02  -6.0 4.64e+05    -  8.94e-03 3.72e-03h  1
 121 -2.5669398e-01 7.34e+00 6.47e+02  -6.0 8.11e+02  -9.8 2.19e-01 2.51e-01h  1
 122 -2.5672920e-01 6.42e+00 4.65e+02  -6.0 6.18e+02  -8.5 9.94e-03 1.25e-01h  1
 123 -2.5660908e-01 4.51e+00 9.18e+03  -6.0 1.28e+03  -9.0 5.86e-03 2.98e-01h  1
 124 -2.5658849e-01 4.36e+00 8.89e+03  -6.0 1.81e+03  -7.6 3.46e-05 3.17e-02h  1
 125 -2.5659703e-01 4.20e+00 8.55e+03  -6.0 7.19e+01  -8.1 3.25e-02 3.76e-02h  1
 126 -2.5659704e-01 4.20e+00 8.55e+03  -6.0 5.55e+02  -6.8 1.45e-04 2.61e-04h  1
 127 -2.5659703e-01 4.20e+00 8.55e+03  -6.0 1.00e+03  -7.3 2.03e-06 4.83e-06f  2
 128 -2.5662590e-01 4.11e+00 8.38e+03  -6.0 5.87e+01  -5.9 2.04e-02 2.02e-02h  1
 129 -2.5676450e-01 1.67e+00 3.40e+03  -6.0 9.65e+00  -6.4 5.85e-01 5.93e-01h  1
iter    objective    inf_pr   inf_du lg(mu)  ||d||  lg(rg) alpha_du alpha_pr  ls
 130 -2.5685068e-01 1.46e-01 4.27e+01  -6.0 5.51e+00  -6.9 7.47e-01 1.00e+00h  1
 131 -2.5701762e-01 7.45e+00 6.73e+01  -6.0 2.39e+01  -7.4 2.47e-01 9.81e-01h  1
 132 -2.5717465e-01 1.36e+01 5.26e+01  -6.0 5.33e+01  -7.8 2.01e-01 2.85e-01h  1
 133 -2.5724998e-01 2.10e+01 3.63e+01  -6.0 3.74e+01  -8.3 7.44e-01 4.44e-01h  1
 134 -2.5727150e-01 7.68e+00 1.01e+01  -6.0 1.00e+02  -8.8 8.62e-01 7.39e-01h  1
 135 -2.5738162e-01 5.01e+00 6.87e+01  -6.0 3.14e+02  -9.3 1.00e+00 4.04e-01h  1
 136 -2.5755539e-01 2.99e+00 4.62e+01  -6.0 9.80e+02  -9.7 5.53e-01 4.76e-01h  1
 137 -2.5769539e-01 1.60e+00 6.51e+01  -6.0 4.26e+02  -9.3 1.91e-01 4.85e-01h  1
 138 -2.5799514e-01 2.41e+00 3.16e+01  -6.0 1.23e+03  -9.8 6.67e-01 6.80e-01h  1
 139 -2.5812957e-01 3.20e+00 2.60e+02  -6.0 2.50e+02  -8.5 2.23e-01 4.12e-01h  1
iter    objective    inf_pr   inf_du lg(mu)  ||d||  lg(rg) alpha_du alpha_pr  ls
 140 -2.5847029e-01 1.59e+01 1.62e+02  -6.0 1.66e+02  -8.9 6.86e-01 7.17e-01h  1
 141 -2.5869577e-01 1.62e+01 2.44e+02  -6.0 5.41e+02  -9.4 5.77e-01 4.60e-01h  1
 142 -2.5888032e-01 1.35e+01 9.30e+04  -6.0 1.66e+03  -9.9 1.53e-02 3.42e-01h  1
 143 -2.5909682e-01 3.77e+00 3.13e+02  -6.0 6.54e+02  -9.5 4.15e-01 1.00e+00h  1
 144 -2.5957174e-01 1.49e+01 1.32e+02  -6.0 2.09e+03  -9.9 2.50e-01 5.68e-01h  1
 145 -2.6037100e-01 1.50e+01 1.34e+02  -6.0 8.53e+05    -  5.08e-06 3.70e-03h  1
 146 -2.6086314e-01 1.46e+01 1.32e+02  -6.0 1.87e+04 -10.4 1.15e-05 2.67e-02h  1
 147 -2.6106288e-01 3.63e+01 2.29e+02  -6.0 6.53e+03    -  6.57e-02 2.84e-01h  1
 148 -2.6097018e-01 4.12e+01 1.97e+02  -6.0 8.22e+02  -8.2 4.11e-04 2.63e-02h  1
 149 -2.6095874e-01 2.87e+01 1.54e+02  -6.0 1.81e+03    -  1.66e-01 3.57e-01h  2
iter    objective    inf_pr   inf_du lg(mu)  ||d||  lg(rg) alpha_du alpha_pr  ls
 150 -2.6081987e-01 2.39e+01 8.46e+01  -6.0 2.79e+01  -6.9 5.52e-01 3.40e-01h  1
 151 -2.6088772e-01 2.54e+01 5.79e+01  -6.0 2.31e+03    -  7.42e-01 5.62e-01h  1
 152 -2.6089708e-01 6.91e-01 6.84e+00  -6.0 1.15e+01  -7.3 8.92e-01 1.00e+00h  1
 153 -2.6094395e-01 4.50e+00 6.47e+00  -6.0 4.87e+03    -  1.50e-01 1.14e-01h  1
 154 -2.6095303e-01 7.23e-01 9.86e-01  -6.0 2.47e+02  -7.8 1.00e+00 1.00e+00h  1
 155 -2.6096626e-01 1.10e-01 9.53e-01  -6.0 1.38e+01  -8.3 1.00e+00 1.00e+00h  1
 156 -2.6098567e-01 4.54e-02 9.52e-02  -6.0 4.26e+01  -8.8 1.00e+00 1.00e+00h  1
 157 -2.6099713e-01 4.32e-01 2.74e-01  -6.0 1.57e+02  -9.3 1.00e+00 1.00e+00h  1
 158 -2.6104855e-01 1.75e+01 7.69e+01  -6.0 1.58e+03  -9.7 2.67e-01 1.00e+00H  1
 159 -2.6105352e-01 1.65e+01 6.49e+01  -6.0 1.66e+03  -9.3 9.47e-02 6.58e-02h  1
iter    objective    inf_pr   inf_du lg(mu)  ||d||  lg(rg) alpha_du alpha_pr  ls
 160 -2.6108275e-01 1.25e+01 4.78e+01  -6.0 1.15e+03    -  2.83e-01 2.63e-01h  1
 161 -2.6103759e-01 9.22e-01 5.72e+00  -6.0 5.35e+02    -  4.23e-01 1.00e+00h  1
 162 -2.6103308e-01 1.40e+00 1.71e+01  -6.0 1.33e+03    -  2.98e-01 1.68e-01h  2
 163 -2.6101670e-01 3.31e-01 9.19e+00  -6.0 1.84e+02    -  5.44e-01 1.00e+00h  1
 164 -2.6103955e-01 1.25e+00 4.49e-02  -6.0 1.23e+02    -  1.00e+00 1.00e+00h  1
 165 -2.6103240e-01 3.57e-02 1.30e-01  -6.0 2.43e+01    -  8.52e-01 1.00e+00h  1
 166 -2.6103419e-01 2.76e-02 7.00e-04  -6.0 2.03e+01    -  1.00e+00 1.00e+00h  1
 167 -2.6103374e-01 2.82e-03 4.76e-05  -6.0 4.87e+00    -  1.00e+00 1.00e+00h  1
 168 -2.6103372e-01 7.92e-06 1.46e-07  -6.0 2.60e-01    -  1.00e+00 1.00e+00h  1
 169 -2.6163235e-01 2.71e+00 1.68e+01  -7.5 2.62e+03    -  3.16e-01 2.57e-01h  1
iter    objective    inf_pr   inf_du lg(mu)  ||d||  lg(rg) alpha_du alpha_pr  ls
 170 -2.6168638e-01 2.66e+00 4.17e+01  -7.5 2.35e+03    -  1.66e-01 3.48e-02h  1
 171 -2.6168870e-01 2.66e+00 5.38e+01  -7.5 1.19e+04  -9.8 7.58e-02 1.15e-03h  1
 172 -2.6177624e-01 2.73e+00 4.35e+01  -7.5 2.87e+03    -  7.09e-04 5.04e-02f  1
 173 -2.6182569e-01 2.67e+00 2.91e+02  -7.5 2.13e+03    -  8.92e-02 3.71e-02h  1
 174 -2.6182595e-01 2.65e+00 2.88e+02  -7.5 2.95e-01  -1.9 1.26e-02 7.18e-03h  1
 175 -2.6182589e-01 2.30e+00 2.53e+02  -7.5 2.93e-01  -2.4 5.19e-02 1.31e-01h  1
 176 -2.6182216e-01 1.93e+00 5.39e+03  -7.5 2.55e-01  -2.9 3.97e-03 1.60e-01h  1
 177 -2.6181550e-01 1.86e+00 5.02e+03  -7.5 2.14e-01  -0.7 1.51e-02 3.54e-02h  1
 178 -2.6180871e-01 1.86e+00 5.02e+03  -7.5 2.06e-01   1.6 7.89e-04 4.88e-04h  1
 179 -2.6181823e-01 1.86e+00 5.00e+03  -7.5 2.06e-01   2.0 1.83e-02 7.39e-04h  1
iter    objective    inf_pr   inf_du lg(mu)  ||d||  lg(rg) alpha_du alpha_pr  ls
 180 -2.6159321e-01 1.84e+00 4.94e+03  -7.5 2.06e-01   1.5 2.32e-04 9.36e-03h  1
 181 -2.6170833e-01 1.83e+00 4.87e+03  -7.5 2.04e-01   2.0 3.97e-02 9.86e-03h  1
 182 -2.6107904e-01 1.80e+00 4.80e+03  -7.5 2.02e-01   1.5 2.20e-03 1.14e-02h  2
 183 -2.6119627e-01 1.78e+00 4.71e+03  -7.5 2.00e-01   1.9 8.67e-02 1.14e-02h  1
 184 -2.6110052e-01 1.78e+00 4.72e+03  -7.5 1.97e-01   1.4 5.46e-03 7.86e-04h  7
 185 -2.6113983e-01 1.77e+00 4.69e+03  -7.5 1.97e-01   1.8 2.56e-02 4.35e-03h  1
 186 -2.6151794e-01 1.74e+00 4.59e+03  -7.5 1.96e-01   2.3 1.89e-02 2.19e-02f  1
 187 -2.6170801e-01 1.69e+00 4.45e+03  -7.5 1.92e-01   1.8 1.40e-01 2.42e-02h  1
 188 -2.6181964e-01 1.68e+00 4.11e+03  -7.5 1.87e-01   2.2 1.67e-01 6.47e-03h  1
 189 -2.6181670e-01 1.63e+00 3.87e+03  -7.5 1.86e-01   1.7 2.43e-01 2.93e-02h  1
iter    objective    inf_pr   inf_du lg(mu)  ||d||  lg(rg) alpha_du alpha_pr  ls
 190 -2.6181545e-01 1.60e+00 4.06e+03  -7.5 1.81e-01   1.3 1.25e-01 1.90e-02h  1
 191 -2.6181685e-01 1.60e+00 4.06e+03  -7.5 1.77e-01   1.7 1.13e-02 5.01e-04h  1
 192 -2.6181354e-01 1.57e+00 3.95e+03  -7.5 1.77e-01   1.2 1.09e-04 1.80e-02h  1
 193 -2.6168815e-01 1.53e+00 6.14e+03  -7.5 1.74e-01   0.7 1.57e-03 2.89e-02h  1
 194 -2.6169873e-01 1.53e+00 6.67e+04  -7.5 1.69e-01   2.1 1.59e-02 6.37e-04h  1
 195 -2.6173970e-01 1.51e+00 8.00e+04  -7.5 1.69e-01   1.6 2.31e-02 1.38e-02h  1
 196 -2.6174422e-01 1.51e+00 8.00e+04  -7.5 1.67e-01   2.0 5.93e-04 2.80e-04h  1
 197 -2.6174431e-01 1.51e+00 8.00e+04  -7.5 1.67e-01   1.5 3.46e-04 2.32e-04h  1
 198 -2.6177350e-01 1.50e+00 8.40e+04  -7.5 1.67e-01   2.0 1.75e-02 1.90e-03f  1
 199 -2.6170690e-01 1.47e+00 8.22e+04  -7.5 1.66e-01   1.5 2.43e-03 1.87e-02h  1
iter    objective    inf_pr   inf_du lg(mu)  ||d||  lg(rg) alpha_du alpha_pr  ls
 200 -2.6181194e-01 1.46e+00 1.02e+05  -7.5 1.63e-01   1.9 9.89e-02 7.22e-03h  1
 201 -2.6181188e-01 1.46e+00 1.01e+05  -7.5 1.62e-01   1.4 1.65e-02 1.11e-03h  1
 202 -2.6118407e-01 1.46e+00 1.01e+05  -7.5 1.72e+00   1.0 6.07e-06 4.28e-04h  8
 203 -2.6110805e-01 1.46e+00 9.98e+04  -7.5 1.62e-01   1.4 3.50e-02 4.19e-03h  3
 204 -2.6135205e-01 1.43e+00 1.50e+05  -7.5 1.61e-01   1.8 4.23e-01 1.91e-02h  1
 205 -2.6114814e-01 1.42e+00 1.48e+05  -7.5 1.58e-01   1.3 1.58e-02 6.75e-03h  5
 206 -2.6179765e-01 1.34e+00 1.42e+05  -7.5 1.57e-01   1.8 8.28e-02 5.35e-02h  1
 207 -2.6109359e-01 1.17e+00 1.38e+05  -7.5 1.48e-01   1.3 1.19e-05 1.29e-01h  1
 208 -2.6180059e-01 1.11e+00 1.32e+05  -7.5 1.29e-01   1.7 2.61e-01 4.94e-02h  1
 209 -2.6167731e-01 9.63e-01 4.79e+04  -7.5 1.23e-01   1.2 6.28e-01 1.34e-01h  1
iter    objective    inf_pr   inf_du lg(mu)  ||d||  lg(rg) alpha_du alpha_pr  ls
 210 -2.6167547e-01 9.54e-01 9.94e+03  -7.5 1.09e-01   0.8 3.99e-01 9.22e-03h  1
 211 -2.6179594e-01 9.47e-01 2.10e+04  -7.5 1.08e-01   1.2 1.00e+00 7.10e-03h  1
 212 -2.6175578e-01 6.76e-01 6.83e+03  -7.5 1.07e-01   0.7 3.72e-03 2.87e-01h  1
 213 -2.6178994e-01 6.64e-01 4.52e+04  -7.5 7.49e-02   0.2 1.00e+00 1.79e-02h  1
 214 -2.6173526e-01 1.57e-03 1.09e+03  -7.5 7.34e-02  -0.2 1.00e+00 1.00e+00h  1
 215 -2.6176982e-01 9.60e-04 6.93e+02  -7.5 4.16e-04  -0.7 9.25e-01 3.88e-01h  1
 216 -2.6176997e-01 4.58e-09 2.15e+02  -7.5 1.31e-03  -1.2 5.75e-02 1.00e+00h  1
 217 -2.6177076e-01 5.04e-08 3.85e+00  -7.5 3.80e-03  -1.7 9.74e-01 1.00e+00h  1
 218 -2.6177717e-01 1.74e-04 5.41e-01  -7.5 7.02e-02  -2.2 1.00e+00 3.06e-01h  1
 219 -2.6178209e-01 7.49e-06 2.48e-02  -7.5 3.76e-02  -2.6 1.00e+00 1.00e+00f  1
iter    objective    inf_pr   inf_du lg(mu)  ||d||  lg(rg) alpha_du alpha_pr  ls
 220 -2.6180182e-01 3.99e-06 2.46e-02  -7.5 1.07e-01  -3.1 9.38e-01 1.00e+00h  1
 221 -2.6180775e-01 5.72e-06 1.47e-02  -7.5 3.11e-01  -3.6 1.00e+00 1.05e-01h  1
 222 -2.6181472e-01 1.99e-04 8.11e-01  -7.5 1.37e-01  -4.1 1.00e+00 7.95e-01f  1
 223 -2.6181626e-01 2.00e-04 1.08e-01  -7.5 3.05e-01  -4.5 1.00e+00 6.37e-02f  1
 224 -2.6182036e-01 5.40e-04 4.76e+00  -7.5 4.64e-01  -5.0 8.86e-01 1.27e-01f  1
 225 -2.6183002e-01 7.25e-03 3.08e+01  -7.5 1.04e+00  -5.5 1.00e+00 2.01e-01h  1
 226 -2.6185313e-01 8.82e-02 9.00e+00  -7.5 2.80e+00  -6.0 3.98e-01 2.63e-01h  1
 227 -2.6187250e-01 1.54e-01 1.15e+01  -7.5 7.28e+00  -6.5 1.00e+00 1.05e-01h  1
 228 -2.6189184e-01 1.27e-01 6.10e+00  -7.5 9.07e+00  -6.9 1.00e+00 1.77e-01h  1
 229 -2.6193575e-01 1.03e-01 8.52e+00  -7.5 3.07e+01  -7.4 1.00e+00 1.96e-01h  1
iter    objective    inf_pr   inf_du lg(mu)  ||d||  lg(rg) alpha_du alpha_pr  ls
 230 -2.6218494e-01 1.67e-01 4.86e+00  -7.5 8.23e+01  -7.9 9.68e-01 1.00e+00h  1
 231 -2.6226159e-01 1.58e-01 4.68e+01  -7.5 1.97e+02  -8.4 2.07e-01 1.48e-01h  1
 232 -2.6262229e-01 6.56e-01 1.38e+02  -7.5 4.13e+02  -8.8 2.01e-01 4.38e-01h  1
 233 -2.6264538e-01 6.47e-01 1.56e+02  -7.5 2.88e+03    -  7.86e-04 1.29e-02h  1
 234 -2.6265573e-01 6.43e-01 1.46e+02  -7.5 6.64e+03    -  9.90e-03 5.19e-03f  1
 235 -2.6271698e-01 6.18e-01 5.51e+02  -7.5 2.39e+03    -  5.83e-01 7.52e-02f  1
 236 -2.6277338e-01 7.32e-01 3.81e+02  -7.5 2.27e+03    -  6.23e-02 1.66e-01h  1
 237 -2.6277357e-01 7.31e-01 4.09e+02  -7.5 8.52e+02  -9.3 4.74e-02 6.26e-04h  1
 238 -2.6279606e-01 5.39e+01 4.06e+02  -7.5 1.36e+04    -  9.45e-03 1.27e-01f  1
 239 -2.6279807e-01 5.36e+01 8.55e+04  -7.5 2.69e+03  -8.9 8.95e-01 6.18e-03h  1
iter    objective    inf_pr   inf_du lg(mu)  ||d||  lg(rg) alpha_du alpha_pr  ls
 240 -2.6281255e-01 4.80e+01 8.42e+04  -7.5 2.03e+03    -  2.16e-02 1.19e-01h  1
 241 -2.6281562e-01 3.71e+01 7.83e+04  -7.5 1.94e+03    -  1.01e-01 4.24e-01h  1
 242 -2.6284160e-01 3.26e+01 2.02e+05  -7.5 1.73e+03    -  8.46e-03 1.31e-01h  1
 243 -2.6282595e-01 2.82e+01 1.69e+05  -7.5 1.68e+03    -  1.22e-01 1.96e-01h  1
 244 -2.6281322e-01 2.58e+01 1.60e+05  -7.5 1.54e+03    -  9.47e-04 1.11e-01h  2
 245 -2.6281124e-01 2.53e+01 1.35e+05  -7.5 1.54e+03    -  2.73e-01 1.95e-02h  5
 246 -2.6281018e-01 2.50e+01 1.32e+05  -7.5 1.50e+03    -  4.26e-02 1.11e-02h  7
 247 -2.6280929e-01 2.48e+01 1.30e+05  -7.5 1.50e+03    -  2.74e-02 1.00e-02h  7
 248 -2.6280906e-01 2.47e+01 1.25e+05  -7.5 1.49e+03    -  1.03e-01 2.52e-03h  9
 249 -2.6273567e-01 2.25e+01 7.23e+04  -7.5 1.47e+03    -  4.66e-02 6.20e-01H  1
iter    objective    inf_pr   inf_du lg(mu)  ||d||  lg(rg) alpha_du alpha_pr  ls
 250 -2.6274009e-01 2.05e+01 5.77e+04  -7.5 1.01e+03    -  2.84e-01 9.66e-02h  1
 251 -2.6276114e-01 1.40e+01 4.23e+04  -7.5 7.88e+02    -  1.66e-01 3.33e-01h  1
 252 -2.6276929e-01 1.20e+01 3.51e+04  -7.5 9.36e+02    -  1.72e-01 1.71e-01h  1
 253 -2.6280814e-01 1.12e+01 2.37e+04  -7.5 1.02e+03    -  6.94e-02 4.14e-01h  1
 254 -2.6285168e-01 9.99e+00 9.78e+03  -7.5 7.88e+02    -  3.70e-01 6.63e-01h  1
 255 -2.6291077e-01 2.98e+01 1.02e+03  -7.5 1.15e+03    -  5.75e-01 1.00e+00h  1
 256 -2.6297039e-01 4.72e+01 6.01e+02  -7.5 2.82e+03    -  3.22e-01 4.27e-01h  1
 257 -2.6291990e-01 2.54e+01 4.83e+03  -7.5 1.10e+03    -  2.82e-01 1.00e+00h  1
 258 -2.6292031e-01 2.52e+01 4.61e+03  -7.5 3.67e+02  -9.4 9.74e-01 8.33e-03h  1
 259 -2.6295104e-01 9.39e+00 3.29e+02  -7.5 6.94e+02  -9.8 7.80e-01 1.00e+00h  1
iter    objective    inf_pr   inf_du lg(mu)  ||d||  lg(rg) alpha_du alpha_pr  ls
 260 -2.6300909e-01 3.71e+01 2.67e+01  -7.5 1.77e+03    -  4.93e-01 7.39e-01h  1
 261 -2.6301423e-01 3.21e+01 1.65e+03  -7.5 1.91e+03    -  7.13e-02 2.24e-01h  1
 262 -2.6301230e-01 1.87e+01 9.07e+02  -7.5 2.57e+02    -  5.06e-01 4.22e-01h  1
 263 -2.6300408e-01 1.26e+00 9.25e+00  -7.5 2.81e+02    -  7.36e-01 1.00e+00h  1
 264 -2.6300409e-01 6.64e-01 4.73e+00  -7.5 2.97e+01    -  1.00e+00 4.74e-01h  1
 265 -2.6300274e-01 3.88e-02 1.49e-02  -7.5 4.58e+01    -  1.00e+00 1.00e+00h  1
 266 -2.6300273e-01 8.22e-07 2.53e-07  -7.5 1.75e-01    -  1.00e+00 1.00e+00h  1
 267 -2.6300273e-01 2.74e-10 5.13e-13  -7.5 1.46e-03    -  1.00e+00 1.00e+00h  1
 268 -2.6300454e-01 2.17e-03 4.47e+00  -9.0 2.45e+02    -  4.73e-01 7.79e-02h  1
In iteration 268, 1 Slack too small, adjusting variable bound
 269 -2.6300521e-01 3.29e-04 9.53e-01  -9.0 3.65e-03  -2.0 8.98e-01 8.48e-01h  1
iter    objective    inf_pr   inf_du lg(mu)  ||d||  lg(rg) alpha_du alpha_pr  ls
 270 -2.6300539e-01 4.98e-09 3.98e-03  -9.0 1.30e-03  -2.5 1.00e+00 1.00e+00h  1
 271 -2.6300546e-01 1.15e-08 1.15e-01  -9.0 3.34e-03  -3.0 1.00e+00 5.51e-01h  1
 272 -2.6300560e-01 7.13e-08 4.19e-02  -9.0 9.30e-03  -3.4 6.57e-01 4.61e-01f  1
 273 -2.6300569e-01 4.10e-08 1.97e-03  -9.0 2.87e-03  -3.0 1.00e+00 1.00e+00f  1
 274 -2.6300579e-01 7.76e-08 2.26e-02  -9.0 9.13e-03  -3.5 1.00e+00 4.01e-01h  1
 275 -2.6300586e-01 1.37e-07 2.11e-02  -9.0 2.30e-02  -4.0 1.00e+00 1.78e-01f  1
 276 -2.6300593e-01 1.82e-07 6.65e-02  -9.0 2.27e-02  -4.4 1.00e+00 3.01e-01f  1
 277 -2.6300600e-01 2.44e-07 5.50e-02  -9.0 5.96e-02  -4.9 1.00e+00 3.14e-01f  1
 278 -2.6300689e-01 8.02e-03 3.72e-01  -9.0 3.70e+03    -  7.01e-01 7.11e-03f  1
 279 -2.6300690e-01 5.41e-03 4.69e-01  -9.0 1.73e-02  -4.5 1.00e+00 3.26e-01h  1
iter    objective    inf_pr   inf_du lg(mu)  ||d||  lg(rg) alpha_du alpha_pr  ls
 280 -2.6300707e-01 8.07e-02 3.20e-01  -9.0 3.53e+03    -  3.80e-01 2.29e-02h  1
 281 -2.6300707e-01 8.05e-02 4.66e+01  -9.0 3.04e+02    -  1.00e+00 2.47e-03h  1
 282 -2.6300840e-01 7.41e-02 3.89e+01  -9.0 3.00e+02    -  3.49e-01 4.60e-01h  1
 283 -2.6300786e-01 7.41e-02 3.51e+01  -9.0 4.12e+02    -  5.54e-07 4.66e-04H  1
 284 -2.6300840e-01 7.38e-02 6.24e+01  -9.0 9.68e+01    -  4.25e-04 3.51e-03h  1
 285 -2.6300840e-01 7.38e-02 6.24e+01  -9.0 7.84e+01    -  2.30e-08 1.39e-06h  2
 286 -2.6300840e-01 7.38e-02 6.24e+01  -9.0 7.96e+01    -  1.30e-06 3.54e-06h  2
 287r-2.6300840e-01 7.38e-02 9.99e+02  -1.3 0.00e+00  -3.2 0.00e+00 2.26e-07R  6
 288r-2.6300949e-01 7.38e-02 9.99e+02  -1.3 7.09e+05    -  4.29e-13 2.32e-09f  1
 289 -2.6301268e-01 7.89e-01 8.84e+02  -9.0 1.57e+05    -  2.00e-06 2.85e-03h  1
iter    objective    inf_pr   inf_du lg(mu)  ||d||  lg(rg) alpha_du alpha_pr  ls
 290 -2.6322310e-01 3.62e+00 8.82e+02  -9.0 1.45e+05    -  5.04e-06 7.12e-03h  1
 291 -2.6329154e-01 3.60e+00 8.80e+02  -9.0 1.69e+05    -  1.24e-06 5.33e-03h  1
 292 -2.6346768e-01 5.57e+00 8.35e+02  -9.0 2.78e+04    -  5.82e-02 3.80e-02h  1
 293 -2.6355630e-01 5.63e+00 7.91e+02  -9.0 1.29e+04    -  5.24e-02 5.15e-02h  1
 294 -2.6351735e-01 5.16e+00 7.32e+02  -9.0 1.73e+03    -  3.97e-02 8.49e-02h  1
 295 -2.6334720e-01 3.31e+00 4.27e+02  -9.0 7.47e+02    -  6.25e-01 3.61e-01h  1
 296 -2.6308955e-01 9.16e-01 7.65e+01  -9.0 6.75e+02    -  5.12e-01 8.80e-01h  1
 297 -2.6307445e-01 6.77e-01 1.15e+02  -9.0 3.94e+02    -  1.00e+00 3.45e-01h  1
 298 -2.6301114e-01 3.14e-02 9.32e+01  -9.0 1.40e+02    -  5.47e-01 9.98e-01h  1
 299 -2.6301112e-01 3.12e-02 3.76e+02  -9.0 8.21e+01    -  5.12e-03 6.11e-03h  1
iter    objective    inf_pr   inf_du lg(mu)  ||d||  lg(rg) alpha_du alpha_pr  ls
 300 -2.6301111e-01 3.10e-02 3.75e+02  -9.0 1.47e+02    -  2.12e-01 4.48e-03h  1
 301 -2.6301107e-01 3.06e-02 3.74e+02  -9.0 1.34e+02    -  9.51e-01 1.49e-02h  1
 302 -2.6301074e-01 2.69e-02 3.29e+02  -9.0 2.09e+00  -2.7 9.45e-02 1.19e-01h  1
 303 -2.6301073e-01 2.68e-02 3.23e+02  -9.0 9.49e+01    -  1.74e-01 6.70e-03h  1
 304 -2.6300938e-01 1.23e-02 1.13e+02  -9.0 1.56e-02  -3.2 1.78e-02 5.41e-01h  1
 305 -2.6300928e-01 1.12e-02 1.03e+02  -9.0 5.79e-03  -1.9 1.64e-01 8.88e-02h  1
 306 -2.6300919e-01 1.04e-02 9.58e+01  -9.0 3.67e-03  -0.5 9.32e-03 7.09e-02h  1
 307 -2.6300898e-01 8.61e-03 7.92e+01  -9.0 3.41e-03  -1.0 1.75e-01 1.72e-01h  1
 308 -2.6300877e-01 6.92e-03 6.36e+01  -9.0 2.82e-03  -1.5 3.71e-01 1.97e-01h  1
 309 -2.6300844e-01 3.85e-03 3.41e+01  -9.0 2.27e-03  -2.0 9.12e-01 4.44e-01h  1
In iteration 309, 1 Slack too small, adjusting variable bound
iter    objective    inf_pr   inf_du lg(mu)  ||d||  lg(rg) alpha_du alpha_pr  ls
 310 -2.6300822e-01 9.69e-04 8.43e+00  -9.0 3.68e-03  -2.5 9.31e-01 7.48e-01h  1
 311 -2.6300831e-01 7.80e-04 6.77e+00  -9.0 1.30e-02  -2.9 1.00e+00 1.95e-01h  1
 312 -2.6300825e-01 2.88e-04 2.64e+00  -9.0 1.54e-03  -3.4 5.82e-01 6.31e-01h  1
 313 -2.6300825e-01 2.88e-04 2.64e+00  -9.0 1.33e-03  -3.0 1.00e+00 2.22e-04h  1
 314 -2.6300823e-01 3.98e-09 3.55e-02  -9.0 1.49e-03  -3.5 1.00e+00 1.00e+00f  1
 315 -2.6300828e-01 4.56e-05 6.49e-02  -9.0 1.71e+01    -  5.54e-01 1.69e-01h  1
 316 -2.6300827e-01 9.19e-09 4.75e-04  -9.0 1.65e-03  -3.9 1.00e+00 1.00e+00f  1
 317 -2.6300843e-01 1.11e-03 1.22e-01  -9.0 2.11e+01    -  1.00e+00 1.00e+00h  1
 318 -2.6300835e-01 2.42e-05 1.88e-03  -9.0 5.61e+00    -  1.00e+00 1.00e+00h  1
 319 -2.6300835e-01 4.69e-08 2.49e-03  -9.0 5.83e-03    -  1.00e+00 1.00e+00h  1
iter    objective    inf_pr   inf_du lg(mu)  ||d||  lg(rg) alpha_du alpha_pr  ls
 320 -2.6300835e-01 1.53e-10 2.69e-06  -9.0 5.95e-05    -  1.00e+00 1.00e+00h  1
 321 -2.6300835e-01 2.81e-10 2.35e-11  -9.0 3.40e-07    -  1.00e+00 1.00e+00h  1

Number of Iterations....: 321

                                   (scaled)                 (unscaled)
Objective...............:  -2.6300834520360705e-01   -2.6300834520360705e-01
Dual infeasibility......:   2.3533758275462446e-11    2.3533758275462446e-11
Constraint violation....:   2.8144552563068997e-10    2.8144552563068997e-10
Complementarity.........:   9.0909091637761467e-10    9.0909091637761467e-10
Overall NLP error.......:   9.0909091637761467e-10    9.0909091637761467e-10


Number of objective function evaluations             = 403
Number of objective gradient evaluations             = 322
Number of equality constraint evaluations            = 404
Number of inequality constraint evaluations          = 404
Number of equality constraint Jacobian evaluations   = 324
Number of inequality constraint Jacobian evaluations = 324
Number of Lagrangian Hessian evaluations             = 321
Total CPU secs in IPOPT (w/o function evaluations)   =    737.224
Total CPU secs in NLP function evaluations           =     10.562

EXIT: Optimal Solution Found.
